\ Model prob_38
\ LP format - for model browsing. Use MPS format to capture full model detail.
Minimize
  41 x_1_2 + 42 x_1_3 + 31 x_1_4 + 39 x_1_5 + 2 x_1_6 + 18 x_1_7 + 48 x_2_1
   + 9 x_2_3 + 22 x_2_4 + 47 x_2_5 + 29 x_2_6 + 39 x_2_7 + 36 x_3_1
   + 22 x_3_2 + 29 x_3_4 + 45 x_3_5 + 33 x_3_6 + 45 x_3_7 + 19 x_4_1
   + 5 x_4_2 + 10 x_4_3 + 3 x_4_5 + 42 x_4_6 + 20 x_4_7 + 13 x_5_1
   + 10 x_5_2 + 21 x_5_3 + 7 x_5_4 + 35 x_5_6 + 11 x_5_7 + 5 x_6_1
   + 35 x_6_2 + 29 x_6_3 + 16 x_6_4 + 40 x_6_5 + 9 x_6_7 + 7 x_7_1
   + 24 x_7_2 + 26 x_7_3 + 38 x_7_4 + 33 x_7_5 + 13 x_7_6
Subject To
 R0: - x_1_2 - x_1_3 - x_1_4 - x_1_5 - x_1_6 - x_1_7 + x_2_1 + x_3_1
   + x_4_1 + x_5_1 + x_6_1 + x_7_1 >= 22
 R1: x_1_2 - x_2_1 - x_2_3 - x_2_4 - x_2_5 - x_2_6 - x_2_7 + x_3_2 + x_4_2
   + x_5_2 + x_6_2 + x_7_2 >= -183
 R2: x_1_3 + x_2_3 - x_3_1 - x_3_2 - x_3_4 - x_3_5 - x_3_6 - x_3_7 + x_4_3
   + x_5_3 + x_6_3 + x_7_3 >= -437
 R3: x_1_4 + x_2_4 + x_3_4 - x_4_1 - x_4_2 - x_4_3 - x_4_5 - x_4_6 - x_4_7
   + x_5_4 + x_6_4 + x_7_4 >= 79
 R4: x_1_5 + x_2_5 + x_3_5 + x_4_5 - x_5_1 - x_5_2 - x_5_3 - x_5_4 - x_5_6
   - x_5_7 + x_6_5 + x_7_5 >= -17
 R5: x_1_6 + x_2_6 + x_3_6 + x_4_6 + x_5_6 - x_6_1 - x_6_2 - x_6_3 - x_6_4
   - x_6_5 - x_6_7 + x_7_6 >= -271
 R6: x_1_7 + x_2_7 + x_3_7 + x_4_7 + x_5_7 + x_6_7 - x_7_1 - x_7_2 - x_7_3
   - x_7_4 - x_7_5 - x_7_6 >= 262
Bounds
Generals
 x_1_2 x_1_3 x_1_4 x_1_5 x_1_6 x_1_7 x_2_1 x_2_3 x_2_4 x_2_5 x_2_6 x_2_7 x_3_1
 x_3_2 x_3_4 x_3_5 x_3_6 x_3_7 x_4_1 x_4_2 x_4_3 x_4_5 x_4_6 x_4_7 x_5_1 x_5_2
 x_5_3 x_5_4 x_5_6 x_5_7 x_6_1 x_6_2 x_6_3 x_6_4 x_6_5 x_6_7 x_7_1 x_7_2 x_7_3
 x_7_4 x_7_5 x_7_6
End
